Gurobi 12.0.1:   lim:time = 500
  mip:bestbound = 1
Set parameter LogToConsole to value 1
  tech:outlev = 1
Set parameter InfUnbdInfo to value 1
Gurobi Optimizer version 12.0.1 build v12.0.1rc0 (win64 - Windows 11.0 (26100.2))

CPU model: Intel(R) Core(TM) i7-10700 CPU @ 2.90GHz, instruction set [SSE2|AVX|AVX2]
Thread count: 8 physical cores, 16 logical processors, using up to 16 threads

Non-default parameters:
TimeLimit  500
InfUnbdInfo  1

Optimize a model with 425 rows, 1079 columns and 5365 nonzeros
Model fingerprint: 0x8706d337
Model has 1 quadratic objective term
Model has 6 quadratic constraints
Variable types: 32 continuous, 1047 integer (0 binary)
Coefficient statistics:
  Matrix range     [1e+00, 1e+05]
  QMatrix range    [1e+00, 1e+00]
  QLMatrix range   [1e+00, 2e+01]
  Objective range  [2e+00, 4e+02]
  QObjective range [2e+00, 2e+00]
  Bounds range     [1e+00, 1e+02]
  RHS range        [1e+00, 1e+05]
  QRHS range       [1e+02, 1e+02]
Presolve removed 29 rows and 82 columns
Presolve time: 0.03s
Presolved: 1000 rows, 1541 columns, 7604 nonzeros
Variable types: 17 continuous, 1524 integer (1401 binary)
Found heuristic solution: objective 2060.3400000

Root relaxation: objective 5.675616e+02, 65 iterations, 0.00 seconds (0.00 work units)

    Nodes    |    Current Node    |     Objective Bounds      |     Work
 Expl Unexpl |  Obj  Depth IntInf | Incumbent    BestBd   Gap | It/Node Time

     0     0  567.56156    0   27 2060.34000  567.56156  72.5%     -    0s
H    0     0                    2042.7000000  567.56156  72.2%     -    0s
H    0     0                    2040.1800000  567.56156  72.2%     -    0s
H    0     0                    1822.8300000  567.56156  68.9%     -    0s
H    0     0                    1222.3000000  578.78446  52.6%     -    0s
     0     0  721.74426    0   20 1222.30000  721.74426  41.0%     -    0s
H    0     0                    1130.6600000  726.63000  35.7%     -    0s
     0     0  726.63000    0   18 1130.66000  726.63000  35.7%     -    0s
     0     0  726.63000    0   18 1130.66000  726.63000  35.7%     -    0s
     0     0  726.63000    0   18 1130.66000  726.63000  35.7%     -    0s
     0     0  726.63000    0   18 1130.66000  726.63000  35.7%     -    0s
     0     2  726.63000    0   18 1130.66000  726.63000  35.7%     -    0s
* 3262   716              15    1001.6300000  848.23057  15.3%  11.8    0s

Cutting planes:
  Learned: 14
  Gomory: 5
  Cover: 5
  Implied bound: 51
  MIR: 2
  Inf proof: 7
  Zero half: 9
  RLT: 23

Explored 7247 nodes (80203 simplex iterations) in 0.98 seconds (1.44 work units)
Thread count was 16 (of 16 available processors)

Solution count 7: 1001.63 1130.66 1222.3 ... 2060.34

Optimal solution found (tolerance 1.00e-04)
Best objective 1.001630000000e+03, best bound 1.001630000000e+03, gap 0.0000%

AMPL MP initial flat model has 1079 variables (0 integer, 1047 binary);
Objectives: 1 quadratic; 
Constraints:  425 linear; 6 quadratic;

AMPL MP final model has 1079 variables (0 integer, 1047 binary);
Objectives: 1 quadratic; 
Constraints:  425 linear; 6 quadratic;


-----RESULTS INFO-----
running_time:  1.047
TC.best_bound:  1001.63
TC:  1001.6299999999999
MIP Gap (%):  1.1350182973914123e-14
=== Vehicle Routes ===
Vehicle 1: 0 → 4
Vehicle 1: 1 → 21
Vehicle 1: 2 → 3
Vehicle 1: 3 → 8
Vehicle 1: 4 → 14
Vehicle 1: 8 → 16
Vehicle 1: 14 → 2
Vehicle 1: 16 → 1
Vehicle 2: 0 → 11
Vehicle 2: 11 → 21
Vehicle 3: 0 → 21
Vehicle 4: 0 → 21

=== Full Vehicle Routes ===
Vehicle 1: 0 → 4 → 14 → 2 → 3 → 8 → 16 → 1 → 0 (90<100)
Vehicle 2: 0 → 11 → 0 (23<100)
Vehicle 3: 0 → 0 (0<100)
Vehicle 4: 0 → 0 (0<100)
Arc used by MRT line: y variables:
MRT used: 11 → 12
Customer assigment to PL: u variables:
5 12
6 16
7 14
9 12
10 12
Node is served by regular vehicle: g variables:
1
2
3
4
8
11
14
16
Customer assigment to Home delivery: gm variables:
1
2
3
4
8
Node total demands: ntd variables:
1 19 1
2 24 1
3 4 1
4 8 1
8 12 1
9 0 0
10 0 0
17 0 0
18 0 0
19 0 0
20 0 0
11 23 1
12 0 0
13 0 0
14 2 1
15 0 0
16 21 1
Customer's demand delivered to PL: l variables:
5
6
7
9
10
